true
6
30
0 1 10.00
0 2 20.00
0 3 30.00
0 4 40.00
0 5 50.00
1 0 12.00
1 2 18.00
1 3 30.00
1 4 25.00
1 5 21.00
2 0 23.00
2 1 19.00
2 3 5.00
2 4 10.00
2 5 15.00
3 0 34.00
3 1 32.00
3 2 4.00
3 4 8.00
3 5 16.00
4 0 45.00
4 1 27.00
4 2 11.00
4 3 10.00
4 5 18.00
5 0 56.00
5 1 22.00
5 2 16.00
5 3 20.00
5 4 12.00
